22443
23776
24680
25396
25833
26229
26444
26645
26899
27114
27296
27440
27623
27743
27861
27946
28009
28065
28144
28224
28281
28334
28396
28445
28511
28541
28569
28609
28649
28684
28711
28762
28814
28870
28903
28944
28963
28996
29039
29071
29118
29167
29261
29338
29375
29414
29455
29511
29588
29654
29774
29887
29922
29926
29926
29926
29926
29926
29927
29927
29927
29928
29929
29930
29931
29934
29934
29934
29934
29934
29934
29934
29934
29934
29934
29934
29934
29935
29935
29936
29936
29936
29936
29936
29936
29936
29936
29936
29936
29936
29936
29936
29936
29936
29936
29936
29936
29936
29936
